10
0 52 56 86 52 64 51 46 33 30 
33 0 92 94 12 19 51 14 79 15 
78 83 0 16 86 21 40 10 8 47 
48 24 55 0 5 19 23 51 52 86 
62 17 26 9 0 80 19 53 29 41 
7 96 80 77 38 0 50 84 17 63 
48 98 20 28 38 31 0 73 84 97 
7 41 61 35 57 20 40 0 72 39 
71 35 88 42 29 54 41 53 0 49 
29 95 22 26 9 16 9 86 25 0 
